qbf_easy_train/easy_13_SAT.qdimacs
p cnf 37 106
a 9 12 30 0
e 1 2 3 4 5 6 7 8 10 11 13 14 15 16 17 18 19 20 21 22 23 24 25 26 27 28 29 31 32 33 34 35 36 37 0
4 -2 0
4 -3 0
2 3 -4 0
5 1 0
5 4 0
-1 -4 -5 0
7 3 0
7 6 0
-3 -6 -7 0
-8 5 0
-8 -7 0
-5 7 8 0
-9 3 -10 0
9 -3 -10 0
-9 -3 10 0
9 3 10 0
-11 -8 0
-11 10 0
8 -10 11 0
13 12 0
13 9 0
-12 -9 -13 0
-14 -9 0
-14 -13 0
9 13 14 0
-15 -7 0
-15 -14 0
7 14 15 0
16 -15 0
16 -14 0
15 14 -16 0
16 -4 -17 0
-16 4 -17 0
16 4 17 0
-16 -4 17 0
-3 18 -19 0
3 -18 -19 0
-3 -18 19 0
3 18 19 0
20 -17 0
20 19 0
17 -19 -20 0
-21 -11 0
-21 20 0
11 -20 21 0
22 -9 0
22 4 0
9 -4 -22 0
23 -4 0
23 -22 0
4 22 -23 0
-24 21 0
-24 -23 0
-21 23 24 0
5 7 -25 0
-5 -7 -25 0
5 -7 25 0
-5 7 25 0
27 -26 0
27 -12 0
26 12 -27 0
28 25 0
28 27 0
-25 -27 -28 0
-29 2 0
-29 7 0
-2 -7 29 0
28 -29 -30 0
-28 29 -30 0
28 29 30 0
-28 -29 30 0
31 14 0
31 -18 0
-14 18 -31 0
32 30 0
32 -31 0
-30 31 -32 0
33 -12 0
33 -18 0
12 18 -33 0
-32 -33 -34 0
32 33 -34 0
-32 33 34 0
32 -33 34 0
3 -18 -35 0
-3 18 -35 0
3 18 35 0
-3 -18 35 0
36 -34 0
36 35 0
34 -35 -36 0
24 36 -37 0
-24 -36 -37 0
24 -36 37 0
-24 36 37 0
-37 5 6 23 -15 -31 0
-20 30 -34 21 -15 27 0
24 29 -31 0
21 -12 -32 3 11 -34 -15 0
27 -28 22 29 7 0
7 25 4 -28 0
8 16 30 36 -13 0
21 -5 -1 -16 -8 7 13 0
-9 1 19 33 -31 -13 6 0
17 3 9 11 35 -28 0
37 0
