sat_easy_train/easy_13_SAT.dimacs
p cnf 132 450
-4 2 0
-4 -3 0
-2 3 4 0
-5 -1 0
-5 4 0
1 -4 5 0
2 -6 -7 0
-2 6 -7 0
2 6 7 0
-2 -6 7 0
8 5 0
8 7 0
-5 -7 -8 0
-9 -10 -11 0
9 10 -11 0
-9 10 11 0
9 -10 11 0
-12 -8 0
-12 11 0
8 -11 12 0
14 -6 0
14 -1 0
6 1 -14 0
15 -14 0
15 6 0
14 -6 -15 0
13 -15 -16 0
-13 15 -16 0
13 15 16 0
-13 -15 16 0
12 -16 -17 0
-12 16 -17 0
12 16 17 0
-12 -16 17 0
5 -2 -18 0
-5 2 -18 0
5 2 18 0
-5 -2 18 0
-19 10 -20 0
19 -10 -20 0
-19 -10 20 0
19 10 20 0
21 -18 0
21 20 0
18 -20 -21 0
22 20 0
22 2 0
-20 -2 -22 0
23 -21 0
23 -22 0
21 22 -23 0
-23 -24 -25 0
23 24 -25 0
-23 24 25 0
23 -24 25 0
26 17 0
26 -25 0
-17 25 -26 0
-28 10 0
-28 -4 0
-10 4 28 0
29 30 -31 0
-29 -30 -31 0
29 -30 31 0
-29 30 31 0
28 31 -32 0
-28 -31 -32 0
28 -31 32 0
-28 31 32 0
-27 32 -33 0
27 -32 -33 0
-27 -32 33 0
27 32 33 0
-34 19 0
-34 -14 0
-19 14 34 0
35 28 0
35 34 0
-28 -34 -35 0
36 33 0
36 35 0
-33 -35 -36 0
-27 29 -37 0
27 -29 -37 0
-27 -29 37 0
27 29 37 0
-39 -38 0
-39 1 0
38 -1 39 0
40 37 0
40 -39 0
-37 39 -40 0
41 36 0
41 40 0
-36 -40 -41 0
42 -38 0
42 3 0
38 -3 -42 0
43 -42 0
43 -20 0
42 20 -43 0
10 -1 -44 0
-10 1 -44 0
10 1 44 0
-10 -1 44 0
-45 -43 0
-45 44 0
43 -44 45 0
-46 13 0
-46 -45 0
-13 45 46 0
47 32 0
47 9 0
-32 -9 -47 0
-48 -46 0
-48 47 0
46 -47 48 0
-49 -41 0
-49 -48 0
41 48 49 0
50 26 0
50 -49 0
-26 49 -50 0
-51 4 0
-51 30 0
-4 -30 51 0
51 -4 -52 0
-51 4 -52 0
51 4 52 0
-51 -4 52 0
29 -52 -53 0
-29 52 -53 0
29 52 53 0
-29 -52 53 0
54 50 0
54 -53 0
-50 53 -54 0
1 55 -56 0
-1 -55 -56 0
1 -55 56 0
-1 55 56 0
-57 -54 0
-57 56 0
54 -56 57 0
58 30 0
58 -18 0
-30 18 -58 0
-58 -9 -59 0
58 9 -59 0
-58 9 59 0
58 -9 59 0
-60 -27 0
-60 -6 0
27 6 60 0
-61 28 0
-61 20 0
-28 -20 61 0
62 60 0
62 61 0
-60 -61 -62 0
64 63 0
64 -51 0
-63 51 -64 0
-64 -19 -65 0
64 19 -65 0
-64 19 65 0
64 -19 65 0
66 62 0
66 65 0
-62 -65 -66 0
67 -59 0
67 66 0
59 -66 -67 0
-68 -43 0
-68 38 0
43 -38 68 0
-69 10 0
-69 -7 0
-10 7 69 0
-70 20 0
-70 29 0
-20 -29 70 0
42 -70 -71 0
-42 70 -71 0
42 70 71 0
-42 -70 71 0
-72 69 0
-72 -71 0
-69 71 72 0
73 7 0
73 -30 0
-7 30 -73 0
75 -74 0
75 -13 0
74 13 -75 0
-14 -19 -76 0
14 19 -76 0
-14 19 76 0
14 -19 76 0
77 76 0
77 21 0
-76 -21 -77 0
77 7 -78 0
-77 -7 -78 0
77 -7 78 0
-77 7 78 0
79 28 0
79 -27 0
-28 27 -79 0
-80 -74 0
-80 -27 0
74 27 80 0
80 14 -81 0
-80 -14 -81 0
80 -14 81 0
-80 14 81 0
82 -79 0
82 -81 0
79 81 -82 0
-78 -82 -83 0
78 82 -83 0
-78 82 83 0
78 -82 83 0
84 -75 0
84 83 0
75 -83 -84 0
-85 -73 0
-85 -84 0
73 84 85 0
-19 -10 -86 0
19 10 -86 0
-19 10 86 0
19 -10 86 0
2 5 -87 0
-2 -5 -87 0
2 -5 87 0
-2 5 87 0
-86 -87 -88 0
86 87 -88 0
-86 87 88 0
86 -87 88 0
-89 13 0
-89 -9 0
-13 9 89 0
51 -89 -90 0
-51 89 -90 0
51 89 90 0
-51 -89 90 0
91 88 0
91 -90 0
-88 90 -91 0
-92 38 0
-92 74 0
-38 -74 92 0
76 27 -93 0
-76 -27 -93 0
76 -27 93 0
-76 27 93 0
-92 93 -94 0
92 -93 -94 0
-92 -93 94 0
92 93 94 0
91 -94 -95 0
-91 94 -95 0
91 94 95 0
-91 -94 95 0
-85 95 -96 0
85 -95 -96 0
-85 -95 96 0
85 95 96 0
72 -96 -97 0
-72 96 -97 0
72 96 97 0
-72 -96 97 0
14 20 -98 0
-14 -20 -98 0
14 -20 98 0
-14 20 98 0
-99 -98 0
-99 71 0
98 -71 99 0
42 6 -100 0
-42 -6 -100 0
42 -6 100 0
-42 6 100 0
-101 -99 0
-101 -100 0
99 100 101 0
-102 -97 0
-102 -101 0
97 101 102 0
103 -68 0
103 102 0
68 -102 -103 0
-104 -93 0
-104 -77 0
93 77 104 0
-105 -42 0
-105 -7 0
42 7 105 0
-106 74 0
-106 -13 0
-74 13 106 0
107 105 0
107 106 0
-105 -106 -107 0
-104 107 -108 0
104 -107 -108 0
-104 -107 108 0
104 107 108 0
109 -106 0
109 27 0
106 -27 -109 0
-108 -109 -110 0
108 109 -110 0
-108 109 110 0
108 -109 110 0
-20 -14 -111 0
20 14 -111 0
-20 14 111 0
20 -14 111 0
110 -111 -112 0
-110 111 -112 0
110 111 112 0
-110 -111 112 0
-113 -15 0
-113 -51 0
15 51 113 0
114 64 0
114 -51 0
-64 51 -114 0
-115 114 0
-115 -7 0
-114 7 115 0
81 -115 -116 0
-81 115 -116 0
81 115 116 0
-81 -115 116 0
-117 113 0
-117 -116 0
-113 116 117 0
118 -112 0
118 -117 0
112 117 -118 0
103 118 -119 0
-103 -118 -119 0
103 -118 119 0
-103 118 119 0
-120 67 0
-120 119 0
-67 -119 120 0
-121 -42 0
-121 32 0
42 -32 121 0
122 -38 0
122 121 0
38 -121 -122 0
-123 -122 0
-123 20 0
122 -20 123 0
124 14 0
124 -123 0
-14 123 -124 0
-7 -51 -125 0
7 51 -125 0
-7 51 125 0
7 -51 125 0
-126 -124 0
-126 -125 0
124 125 126 0
127 -70 0
127 98 0
70 -98 -127 0
77 -14 -128 0
-77 14 -128 0
77 14 128 0
-77 -14 128 0
127 -128 -129 0
-127 128 -129 0
127 128 129 0
-127 -128 129 0
130 126 0
130 -129 0
-126 129 -130 0
-131 -120 0
-131 130 0
120 -130 131 0
132 -57 0
132 -131 0
57 131 -132 0
25 75 -53 0
-8 -53 0
-12 -48 -31 0
-113 98 -48 0
110 -12 109 0
49 41 93 -98 0
101 -73 111 0
91 -111 58 0
107 83 0
74 77 0
-47 51 74 0
-46 53 87 -112 0
-44 13 16 0
53 -28 0
26 108 46 129 0
107 99 125 43 0
61 85 -87 0
7 -57 0
7 -90 0
46 128 -7 33 0
72 -20 -77 0
16 -89 42 -92 0
-64 -90 0
55 -57 13 35 115 0
-25 -19 -37 82 59 0
102 39 109 -23 0
68 -40 99 -30 0
81 73 -34 16 50 -104 0
-92 73 93 13 -65 89 0
73 -109 -75 124 0
-107 67 -102 127 73 -66 0
41 -28 8 111 0
-97 46 -111 19 32 0
27 15 7 0
-74 59 -54 85 6 0
12 36 0
119 -89 122 128 0
80 16 0
-21 1 -42 91 0
46 21 -33 0
-119 42 -126 -104 -3 0
110 -58 29 0
-38 -53 -27 -91 -6 0
-51 -130 -50 8 64 -99 0
-16 88 102 -82 0
131 -101 -35 0
85 -92 -103 -74 -72 -60 0
5 103 0
61 122 4 54 -80 107 0
34 46 -12 35 -52 0
30 -27 46 -106 104 -42 0
18 -95 -123 40 0
-61 95 74 -28 0
91 -9 -1 -116 66 0
-59 -60 -20 0
-121 -53 0
-45 54 116 0
88 46 -47 0
-113 33 71 0
132 0
